
(set-logic ALL) 

(declare-datatype MyList ((Nil) (Cons (head Real) (tail MyList)) )) 
(declare-fun l0 () MyList) 
(declare-fun l1 () MyList) 
(declare-fun l2 () MyList) 
(declare-fun l3 () MyList) 
(declare-fun i0 () Real) 
(declare-fun i1 () Real) 
(assert (= l2 Nil) )
(assert (or (= l0 l1) (is-Nil Nil)) )
(assert (is-Cons Nil) )
(assert (is-Cons Nil) )
(assert (is-Nil l3) )
(assert (is-Cons Nil) )
(assert (and (= l3 l1) (= l3 l1)) )
(assert (= l2 l2) )
(check-sat)
